NAME : iia5
COMMENT : 5 ciudades en circunferencia radio 1000
TYPE : TSP
DIMENSION: 5
EDGE_WEIGHT_TYPE : EUC_2D
NODE_COORD_SECTION
1 1175.065303819902 1984.556823854492
2 1687.8939894550194 274.18882671065364
3 1268.6021587791931 1963.2512031132674
4 1872.0686476981045 510.6164349898954
5 2.6498154216895955 1072.7503217972967
EOF
